100
32
20
17
30
3
11
21
12
17
21
21
22
21
3
21
12
2
2
2
12
18
3
1
2
2
1
1
5
1
4
2
3
5
1
17
5
17
1
5
2
10
17
1
2
1
1
2
5
2
2
2
1
3
4
2
18
4
1
8
2
1
2
4
2
17
1
6
2
17
1
1
2
21
4
3
1
5
2
5
3
1
2
2
16
4
6
4
2
5
1
23
3
1
2
2
1
2
2
1
1
1